data;


param d:= 100;
param r:=5;
param p:=0.600000;
param M:=1000;
param U:=
         1         1        8.327551e-01
         2         1        9.942829e-01
         3         1       -7.076904e-01
         4         1       -3.294862e-01
         5         1       -1.206588e+00
         6         1       -1.016728e+00
         7         1        6.003960e-02
         8         1        1.577969e+00
         9         1       -8.817845e-01
        10         1       -1.223061e-01
        11         1        9.656821e-01
        12         1       -1.690718e+00
        13         1        3.936653e-01
        14         1        1.849441e+00
        15         1        6.636231e-01
        16         1        1.760394e+00
        17         1        5.067566e-01
        18         1       -3.045047e-01
        19         1       -1.384822e+00
        20         1       -3.604649e-01
        21         1        2.197215e-01
        22         1        4.763766e-01
        23         1        6.069053e-01
        24         1        5.361670e-01
        25         1       -3.811014e-02
        26         1       -2.562169e+00
        27         1        6.373466e-01
        28         1       -1.095164e+00
        29         1       -5.606965e-01
        30         1       -1.447210e+00
        31         1        1.780346e+00
        32         1       -1.247225e+00
        33         1        1.518627e+00
        34         1       -1.072095e+00
        35         1       -1.224533e+00
        36         1        7.151706e-01
        37         1       -1.487542e-01
        38         1       -9.282573e-01
        39         1       -2.046150e-01
        40         1        3.663635e-01
        41         1       -1.473066e+00
        42         1       -1.243686e+00
        43         1        7.781893e-01
        44         1        9.491252e-01
        45         1        2.757851e-01
        46         1        7.245015e-01
        47         1        2.170127e+00
        48         1        3.293877e-01
        49         1       -3.341680e-01
        50         1        2.269335e-01
        51         1        5.035343e-01
        52         1        1.041685e+00
        53         1        6.836219e-01
        54         1        6.430886e-01
        55         1        4.793429e-02
        56         1        1.240283e+00
        57         1        1.068866e-01
        58         1        3.081366e-01
        59         1       -7.490093e-01
        60         1       -8.301908e-01
        61         1       -1.052364e+00
        62         1       -5.320299e-01
        63         1       -1.880921e-01
        64         1       -4.245428e-01
        65         1       -1.720900e+00
        66         1       -7.951280e-01
        67         1       -1.187102e+00
        68         1        1.110336e+00
        69         1       -1.133711e-01
        70         1       -1.205210e-02
        71         1        2.558298e+00
        72         1        3.695507e-01
        73         1        9.625225e-01
        74         1       -5.420891e-01
        75         1       -1.738272e-01
        76         1       -1.050038e+00
        77         1       -2.163607e-01
        78         1        8.572238e-01
        79         1        1.565089e-02
        80         1       -3.279090e-02
        81         1        8.306802e-01
        82         1       -2.756911e-01
        83         1       -2.529632e-01
        84         1        1.525636e-01
        85         1        7.515980e-01
        86         1        7.041717e-01
        87         1        3.106479e-01
        88         1        3.197284e-01
        89         1       -4.113945e-01
        90         1        3.738446e-01
        91         1       -1.733486e+00
        92         1       -4.356673e-01
        93         1       -1.110752e+00
        94         1       -1.610751e+00
        95         1       -7.252988e-01
        96         1        4.134175e-02
        97         1        8.136784e-01
        98         1       -2.278419e-01
        99         1       -1.234355e+00
       100         1        3.747647e-02
         1         2        1.494038e+00
         2         2       -1.858721e+00
         3         2       -1.489019e+00
         4         2       -1.909301e-01
         5         2       -8.557029e-01
         6         2       -1.583397e+00
         7         2       -9.168124e-01
         8         2       -1.519078e+00
         9         2        1.856272e+00
        10         2       -1.570015e+00
        11         2       -2.908192e-01
        12         2        2.234099e+00
        13         2       -6.461194e-01
        14         2        3.860238e-01
        15         2       -4.356672e-01
        16         2       -1.032906e-01
        17         2        1.059481e+00
        18         2       -2.895920e-01
        19         2       -7.892438e-01
        20         2       -8.413188e-03
        21         2       -6.031363e-01
        22         2        1.489483e+00
        23         2       -1.050154e+00
        24         2       -1.287881e+00
        25         2       -7.549452e-01
        26         2        5.880166e-03
        27         2        6.624501e-01
        28         2        3.856577e-01
        29         2        8.935930e-01
        30         2        1.088119e+00
        31         2       -6.533377e-01
        32         2       -4.241367e-01
        33         2        7.142722e-01
        34         2       -1.127483e-01
        35         2        3.526211e-01
        36         2       -5.626178e-01
        37         2       -8.709308e-01
        38         2        3.908825e-01
        39         2        1.980501e+00
        40         2        1.340444e-01
        41         2        8.673432e-01
        42         2       -1.207301e-01
        43         2       -9.465329e-01
        44         2       -1.449203e+00
        45         2       -2.413786e+00
        46         2       -4.820056e-01
        47         2        2.021091e-01
        48         2        6.660493e-01
        49         2       -1.021923e+00
        50         2       -7.540710e-01
        51         2       -9.987042e-01
        52         2        7.632115e-01
        53         2        1.575872e+00
        54         2       -8.133485e-01
        55         2       -3.135373e-01
        56         2        1.353920e-01
        57         2        9.948660e-01
        58         2       -1.247008e+00
        59         2       -6.658932e-02
        60         2        1.127019e+00
        61         2        5.286673e-01
        62         2       -7.423996e-01
        63         2        7.197889e-01
        64         2       -1.058301e-01
        65         2       -1.512041e+00
        66         2       -3.538447e-01
        67         2       -2.229392e+00
        68         2        1.296454e+00
        69         2       -2.639947e-01
        70         2        8.446245e-01
        71         2       -1.034736e+00
        72         2       -8.625580e-01
        73         2       -6.549420e-01
        74         2        1.790357e-01
        75         2        7.296115e-01
        76         2        3.023198e-01
        77         2       -1.646643e-02
        78         2        1.554446e+00
        79         2       -2.087078e+00
        80         2        4.363701e-01
        81         2        1.032794e+00
        82         2        1.770655e+00
        83         2        3.839692e-01
        84         2       -1.139146e-01
        85         2        1.949180e+00
        86         2        4.642971e-01
        87         2        7.114955e-02
        88         2       -1.714788e+00
        89         2       -1.102215e+00
        90         2       -1.064217e+00
        91         2        8.072967e-01
        92         2        9.695486e-01
        93         2        1.732947e+00
        94         2       -1.661332e+00
        95         2        1.053053e+00
        96         2        3.390117e-01
        97         2       -8.219966e-01
        98         2       -1.447031e+00
        99         2        6.737395e-01
       100         2       -1.654223e+00
         1         3        3.999385e-01
         2         3        2.233448e+00
         3         3       -4.520389e-01
         4         3       -1.150502e+00
         5         3        1.291484e+00
         6         3        1.016944e+00
         7         3        1.098382e+00
         8         3       -1.413666e+00
         9         3        3.439327e-01
        10         3        7.911817e-01
        11         3       -4.654342e-01
        12         3       -1.327023e+00
        13         3        5.216443e-01
        14         3       -1.031006e-01
        15         3       -2.665017e-01
        16         3       -8.445958e-01
        17         3       -6.912504e-01
        18         3       -5.966322e-01
        19         3        1.838013e+00
        20         3        1.700998e+00
        21         3       -1.228502e+00
        22         3        6.735706e-01
        23         3       -1.799816e-01
        24         3        1.330130e+00
        25         3       -2.567425e-01
        26         3       -4.656224e-01
        27         3       -1.298959e+00
        28         3        2.374605e-01
        29         3       -1.983466e+00
        30         3       -7.635806e-01
        31         3       -3.678913e-01
        32         3        5.663105e-01
        33         3        6.500140e-01
        34         3        3.712798e-01
        35         3       -2.454809e-01
        36         3       -6.035427e-01
        37         3        1.629446e+00
        38         3        3.990323e-01
        39         3        4.344866e-01
        40         3       -3.651003e-01
        41         3       -2.550309e+00
        42         3       -6.231761e-02
        43         3       -9.832410e-01
        44         3        1.016340e+00
        45         3       -5.449204e-01
        46         3        2.960143e-01
        47         3       -1.269718e+00
        48         3       -1.253995e+00
        49         3        2.556534e-01
        50         3        1.883990e+00
        51         3       -7.532883e-01
        52         3       -3.212671e-01
        53         3       -7.782548e-02
        54         3        1.354259e+00
        55         3       -2.976777e+00
        56         3       -1.169190e+00
        57         3        3.085139e-02
        58         3       -4.203091e-01
        59         3        8.884892e-01
        60         3        1.577326e-01
        61         3        8.044602e-01
        62         3       -2.086233e+00
        63         3       -8.563732e-01
        64         3       -1.322025e+00
        65         3       -5.522410e-01
        66         3        1.180201e+00
        67         3        7.686318e-02
        68         3        7.923908e-01
        69         3       -1.067233e+00
        70         3        5.017629e-01
        71         3        7.852483e-01
        72         3       -6.861323e-01
        73         3       -5.224667e-01
        74         3       -1.955522e+00
        75         3        7.973328e-01
        76         3       -4.262209e-02
        77         3        1.301641e-01
        78         3        6.484985e-01
        79         3        1.995238e-01
        80         3       -8.420431e-01
        81         3        4.441000e-01
        82         3        1.839920e-01
        83         3       -1.300861e-01
        84         3       -6.472834e-02
        85         3        9.002587e-01
        86         3        9.894540e-01
        87         3       -2.258058e-02
        88         3       -1.390111e+00
        89         3        1.446183e+00
        90         3       -1.154691e+00
        91         3        1.031804e+00
        92         3       -1.457865e+00
        93         3        8.334424e-01
        94         3       -1.017387e+00
        95         3       -8.627448e-01
        96         3       -1.163091e+00
        97         3        7.522390e-01
        98         3       -3.773031e-01
        99         3        1.011104e-01
       100         3       -9.181005e-01
         1         4       -1.281058e+00
         2         4        1.847602e+00
         3         4        6.227589e-02
         4         4       -4.699027e-01
         5         4        1.380327e+00
         6         4        1.589000e-01
         7         4        1.390580e+00
         8         4        1.438850e+00
         9         4        1.470547e+00
        10         4       -1.074044e+00
        11         4       -1.454504e-01
        12         4        2.130782e+00
        13         4       -1.225807e+00
        14         4        2.709161e+00
        15         4        8.447339e-01
        16         4        2.436747e-01
        17         4       -4.459525e-01
        18         4        1.430503e-01
        19         4       -4.951721e-01
        20         4       -5.841423e-01
        21         4       -1.415490e-01
        22         4        1.232768e+00
        23         4        2.828342e-01
        24         4       -1.848131e-01
        25         4       -8.725802e-02
        26         4        2.762966e-01
        27         4        2.586090e-01
        28         4       -2.909857e-01
        29         4        8.273375e-01
        30         4        4.621446e-01
        31         4       -5.055235e-01
        32         4        9.013967e-01
        33         4       -2.620081e+00
        34         4        8.833423e-01
        35         4        8.590547e-01
        36         4        1.184784e+00
        37         4        8.770921e-01
        38         4       -1.886354e+00
        39         4        9.519933e-01
        40         4       -2.088224e-01
        41         4       -7.530129e-01
        42         4       -4.787806e-01
        43         4        9.709927e-01
        44         4       -4.222675e-01
        45         4        8.139887e-01
        46         4       -8.662312e-01
        47         4       -1.314418e+00
        48         4        7.509412e-01
        49         4        1.574381e+00
        50         4       -4.768588e-01
        51         4       -7.957922e-01
        52         4       -1.218618e-01
        53         4        1.935530e-01
        54         4       -1.871366e+00
        55         4       -7.640665e-01
        56         4        8.542764e-01
        57         4        9.854532e-01
        58         4       -6.639240e-01
        59         4        5.352251e-01
        60         4        8.290135e-01
        61         4       -2.198257e-01
        62         4       -8.343239e-01
        63         4       -2.065143e-01
        64         4       -1.948359e-01
        65         4       -3.429196e-01
        66         4       -3.719112e-01
        67         4       -3.882679e-01
        68         4        6.671952e-01
        69         4        4.160580e-02
        70         4        1.195469e+00
        71         4        7.715336e-02
        72         4        2.101455e+00
        73         4        1.094943e-01
        74         4       -5.867824e-01
        75         4        5.622774e-01
        76         4        9.044902e-01
        77         4       -6.257783e-01
        78         4       -2.076083e-02
        79         4       -6.393154e-01
        80         4        4.731500e-01
        81         4       -6.324543e-01
        82         4        6.711105e-02
        83         4       -2.306639e+00
        84         4        7.491954e-01
        85         4        6.276540e-01
        86         4       -7.351801e-01
        87         4        1.103270e+00
        88         4        4.095819e-01
        89         4       -7.990888e-01
        90         4        9.732420e-01
        91         4        9.189774e-01
        92         4        9.456828e-02
        93         4       -8.069626e-02
        94         4        1.899285e+00
        95         4       -1.343209e+00
        96         4        9.332388e-01
        97         4       -4.431946e-01
        98         4        1.046834e+00
        99         4        1.225498e+00
       100         4       -2.651863e+00
         1         5        1.074484e+00
         2         5       -8.665613e-01
         3         5        2.762229e-01
         4         5       -1.513057e+00
         5         5        7.687046e-01
         6         5        4.438290e-01
         7         5        4.596147e-01
         8         5       -4.793266e-01
         9         5       -1.857194e+00
        10         5        3.858604e-01
        11         5       -7.854789e-01
        12         5       -4.408804e-01
        13         5        1.419209e+00
        14         5       -3.976328e-01
        15         5        2.140394e-01
        16         5        1.145228e+00
        17         5        8.696693e-01
        18         5       -7.149776e-01
        19         5       -4.618687e-01
        20         5        2.118579e-01
        21         5       -8.276157e-01
        22         5       -9.270924e-01
        23         5        7.171531e-01
        24         5        1.687554e-01
        25         5       -9.530889e-02
        26         5       -3.188616e-01
        27         5       -7.014557e-01
        28         5        2.350997e-01
        29         5        7.399098e-01
        30         5        1.095264e+00
        31         5       -2.262301e-01
        32         5       -2.813848e-01
        33         5       -1.400892e-01
        34         5       -2.463269e-01
        35         5        1.268244e+00
        36         5       -1.363248e-01
        37         5       -7.043461e-01
        38         5       -2.567885e-01
        39         5        2.548274e-01
        40         5       -2.130153e+00
        41         5        1.710081e+00
        42         5        2.613896e-01
        43         5        6.120722e-01
        44         5       -1.998310e-01
        45         5        1.397523e+00
        46         5       -6.565457e-01
        47         5        3.976545e-01
        48         5       -3.143230e-01
        49         5        7.276709e-01
        50         5       -3.165501e-01
        51         5        1.663620e-01
        52         5       -1.068606e+00
        53         5        9.965173e-01
        54         5       -9.526898e-01
        55         5       -1.300929e+00
        56         5        1.090715e+00
        57         5        3.052435e-01
        58         5        2.462095e+00
        59         5       -5.028223e-02
        60         5        1.951579e-02
        61         5       -7.872504e-01
        62         5        7.678085e-01
        63         5       -1.660900e+00
        64         5        9.286331e-01
        65         5        3.678301e-01
        66         5        6.956497e-01
        67         5       -6.265827e-01
        68         5        4.720747e-01
        69         5        6.192946e-02
        70         5       -2.748972e-01
        71         5        9.127193e-01
        72         5        1.818769e+00
        73         5        1.103092e+00
        74         5       -3.261592e+00
        75         5        2.901527e+00
        76         5       -1.774123e+00
        77         5        8.954121e-01
        78         5       -2.157710e+00
        79         5        1.326562e+00
        80         5        2.033296e+00
        81         5       -1.523045e+00
        82         5        2.279227e-02
        83         5        8.261462e-02
        84         5        4.884115e-01
        85         5       -1.609836e+00
        86         5        1.347273e+00
        87         5       -3.354701e+00
        88         5       -7.593094e-01
        89         5       -3.934595e-01
        90         5        1.056874e+00
        91         5       -5.925574e-01
        92         5       -4.325148e-01
        93         5       -1.089021e-01
        94         5        2.259478e-01
        95         5       -1.047692e+00
        96         5       -2.392928e-01
        97         5        3.840953e-01
        98         5        4.141816e-01
        99         5        1.745392e-01
       100         5        1.267162e-01
;

param theta:=
    1       -5.782048e-01
    2       -4.686206e-01
    3       -2.574100e-01
    4        2.112100e-01
    5        7.133613e-02
;
param X_true:=
    1       -1.478511e+00
    2        4.963898e-02
    3        1.256192e+00
    4        3.689511e-01
    5        1.112589e+00
    6        1.133340e+00
    7        4.386792e-01
    8        4.330803e-01
    9       -2.704580e-01
   10        4.034779e-01
   11       -3.890243e-01
   12        6.908174e-01
   13       -2.167726e-01
   14       -6.798789e-01
   15        8.273782e-02
   16       -6.188940e-01
   17       -6.437195e-01
   18        4.445639e-01
   19        5.599106e-01
   20       -3.337525e-01
   21        3.828915e-01
   22       -9.525916e-01
   23        2.984337e-01
   24       -7.587190e-02
   25        4.166777e-01
   26        1.634169e+00
   27       -3.400080e-01
   28        3.466894e-01
   29        6.435296e-01
   30        6.991633e-01
   31       -7.514480e-01
   32        9.444478e-01
   33       -1.943501e+00
   34        7.461541e-01
   35        8.778870e-01
   36        2.460106e-01
   37        2.097161e-01
   38       -1.659029e-01
   39       -7.023865e-01
   40       -3.767309e-01
   41        1.064701e+00
   42        7.092464e-01
   43        4.954544e-01
   44       -2.347210e-01
   45        1.383574e+00
   46       -4.990217e-01
   47       -1.271903e+00
   48       -4.360327e-02
   49        9.907380e-01
   50       -3.860976e-01
   51        2.145597e-01
   52       -9.792349e-01
   53       -1.001759e+00
   54       -8.024973e-01
   55        6.312847e-01
   56       -2.213849e-01
   57       -3.060460e-01
   58        5.498083e-01
   59        3.450378e-01
   60        8.776206e-02
   61        5.107281e-02
   62        1.071098e+00
   63       -1.702132e-01
   64        6.604632e-01
   65        1.799570e+00
   66        2.928436e-01
   67        1.584638e+00
   68       -1.278921e+00
   69        4.771869e-01
   70       -2.851137e-01
   71       -1.115047e+00
   72        9.407461e-01
   73       -1.331105e-02
   74        3.763060e-01
   75       -1.209024e-01
   76        5.409134e-01
   77        3.101633e-02
   78       -1.549334e+00
   79        8.772408e-01
   80        2.761997e-01
   81       -1.320837e+00
   82       -7.019202e-01
   83       -4.814778e-01
   84        1.749104e-01
   85       -1.562012e+00
   86       -9.385982e-01
   87       -2.134375e-01
   88        1.008887e+00
   89        1.852853e-01
   90        8.607360e-01
   91        5.102239e-01
   92        1.619434e-01
   93       -4.092012e-01
   94        2.389030e+00
   95       -2.104693e-01
   96        2.966585e-01
   97       -3.451093e-01
   98        1.157618e+00
   99        6.432433e-01
  100        4.388017e-01
;
param X:=
    1       -1.478511e+00
    2        4.963898e-02
    3       -4.679673e-02
    4       -9.815397e-02
    5        1.496481e+00
    6        1.133340e+00
    7        4.386792e-01
    8       -2.768962e-01
    9       -2.704580e-01
   10        1.790553e+00
   11        9.864587e-01
   12        6.908174e-01
   13        2.905446e-01
   14       -6.964369e-02
   15        1.123388e+00
   16       -1.141065e+00
   17       -6.437195e-01
   18        4.445639e-01
   19        1.626149e+00
   20       -1.479169e+00
   21        7.398106e-02
   22       -9.525916e-01
   23       -1.537481e-01
   24       -1.734280e-01
   25        4.166777e-01
   26       -7.806450e-01
   27       -7.429136e-01
   28        3.466894e-01
   29        6.435296e-01
   30        1.724968e+00
   31       -7.514480e-01
   32        9.444478e-01
   33       -6.650276e-01
   34       -1.562865e-01
   35       -5.070927e-01
   36        9.771740e-01
   37        2.097161e-01
   38       -1.659029e-01
   39       -7.023865e-01
   40        5.776046e-02
   41        2.999753e-02
   42       -6.910560e-01
   43        8.454934e-01
   44       -2.458543e-01
   45        1.383574e+00
   46        2.076613e+00
   47       -1.271903e+00
   48       -4.360327e-02
   49        9.907380e-01
   50        1.938750e+00
   51        2.145597e-01
   52        1.303690e+00
   53        3.928406e-01
   54        1.409392e+00
   55        6.312847e-01
   56       -2.213849e-01
   57       -3.060460e-01
   58       -4.718888e-01
   59       -2.349611e-01
   60        8.776206e-02
   61        5.107281e-02
   62       -5.841658e-01
   63        2.451626e-01
   64        1.726536e+00
   65        1.799570e+00
   66        9.032027e-02
   67       -6.445705e-02
   68        1.245578e+00
   69       -1.058611e+00
   70       -7.417253e-02
   71       -1.169148e+00
   72        1.204029e-01
   73       -1.331105e-02
   74       -8.255158e-01
   75        1.999086e+00
   76        5.409134e-01
   77        2.227769e-01
   78       -1.094127e+00
   79        2.388254e-01
   80        2.761997e-01
   81       -1.320837e+00
   82       -7.019202e-01
   83       -4.814778e-01
   84        1.418043e-02
   85        7.901418e-01
   86       -1.762986e+00
   87        8.812898e-01
   88        5.090283e-01
   89        7.516326e-01
   90        1.269946e-01
   91        5.102239e-01
   92        1.185061e+00
   93       -4.092012e-01
   94       -6.132669e-01
   95       -2.104693e-01
   96        2.198527e-01
   97       -3.451093e-01
   98        1.157618e+00
   99        6.432433e-01
  100        1.831309e+00
;
param outliervec:=
    1    0
    2    0
    3    1
    4    1
    5    1
    6    0
    7    0
    8    1
    9    0
   10    1
   11    1
   12    0
   13    1
   14    1
   15    1
   16    1
   17    0
   18    0
   19    1
   20    1
   21    1
   22    0
   23    1
   24    1
   25    0
   26    1
   27    1
   28    0
   29    0
   30    1
   31    0
   32    0
   33    1
   34    1
   35    1
   36    1
   37    0
   38    0
   39    0
   40    1
   41    1
   42    1
   43    1
   44    1
   45    0
   46    1
   47    0
   48    0
   49    0
   50    1
   51    0
   52    1
   53    1
   54    1
   55    0
   56    0
   57    0
   58    1
   59    1
   60    0
   61    0
   62    1
   63    1
   64    1
   65    0
   66    1
   67    1
   68    1
   69    1
   70    1
   71    1
   72    1
   73    0
   74    1
   75    1
   76    0
   77    1
   78    1
   79    1
   80    0
   81    0
   82    0
   83    0
   84    1
   85    1
   86    1
   87    1
   88    1
   89    1
   90    1
   91    0
   92    1
   93    0
   94    1
   95    0
   96    1
   97    0
   98    0
   99    0
  100    1
;